717.31
0 36 62 12 71 34 63 28 10 21 2 67 52 54 33 16 66 24 74 43 59 11 13 14 6 3 23 26 29 46 56 73 20 19 70 64 69 58 65 41 17 51 39 25 30 44 72 48 37 68 4 22 31 18 47 57 55 35 53 9 42 15 27 60 32 5 8 45 7 50 38 61 40 49 1
